# Solution for model simple
# Objective value = 0
x[0,0] 0
x[0,1] 0
x[0,2] 0
x[0,3] 0
x[0,4] 1
x[0,5] 0
x[0,6] 0
x[0,7] 0
x[0,8] 0
x[0,9] 0
x[0,10] 0
x[0,11] 0
x[0,12] 0
x[0,13] 0
x[1,0] 0
x[1,1] 0
x[1,2] 0
x[1,3] 0
x[1,4] 0
x[1,5] 0
x[1,6] 0
x[1,7] 1
x[1,8] 0
x[1,9] 0
x[1,10] 0
x[1,11] 0
x[1,12] 0
x[1,13] 0
x[2,0] 0
x[2,1] 0
x[2,2] 0
x[2,3] 0
x[2,4] 0
x[2,5] 0
x[2,6] 0
x[2,7] 0
x[2,8] 0
x[2,9] 0
x[2,10] 0
x[2,11] 0
x[2,12] 0
x[2,13] 1
x[3,0] 0
x[3,1] 0
x[3,2] 0
x[3,3] 0
x[3,4] 0
x[3,5] 1
x[3,6] 0
x[3,7] 0
x[3,8] 0
x[3,9] 0
x[3,10] 0
x[3,11] 0
x[3,12] 0
x[3,13] 0
x[4,0] 0
x[4,1] 1
x[4,2] 0
x[4,3] 0
x[4,4] 0
x[4,5] 0
x[4,6] 0
x[4,7] 0
x[4,8] 0
x[4,9] 0
x[4,10] 0
x[4,11] 0
x[4,12] 0
x[4,13] 0
x[5,0] 0
x[5,1] 0
x[5,2] 0
x[5,3] 0
x[5,4] 0
x[5,5] 0
x[5,6] 0
x[5,7] 0
x[5,8] 0
x[5,9] 0
x[5,10] 0
x[5,11] 0
x[5,12] 0
x[5,13] 1
x[6,0] 0
x[6,1] 0
x[6,2] 0
x[6,3] 0
x[6,4] 0
x[6,5] 0
x[6,6] 0
x[6,7] 0
x[6,8] 0
x[6,9] 1
x[6,10] 0
x[6,11] 0
x[6,12] 0
x[6,13] 0
x[7,0] 0
x[7,1] 0
x[7,2] 1
x[7,3] 0
x[7,4] 0
x[7,5] 0
x[7,6] 0
x[7,7] 0
x[7,8] 0
x[7,9] 0
x[7,10] 0
x[7,11] 0
x[7,12] 0
x[7,13] 0
x[8,0] 1
x[8,1] 0
x[8,2] 0
x[8,3] 0
x[8,4] 0
x[8,5] 0
x[8,6] 0
x[8,7] 0
x[8,8] 0
x[8,9] 0
x[8,10] 0
x[8,11] 0
x[8,12] 0
x[8,13] 0
x[9,0] 0
x[9,1] 0
x[9,2] 1
x[9,3] 0
x[9,4] 0
x[9,5] 0
x[9,6] 0
x[9,7] 0
x[9,8] 0
x[9,9] 0
x[9,10] 0
x[9,11] 0
x[9,12] 0
x[9,13] 0
x[10,0] 0
x[10,1] 0
x[10,2] 0
x[10,3] 0
x[10,4] 0
x[10,5] 0
x[10,6] 0
x[10,7] 0
x[10,8] 0
x[10,9] 0
x[10,10] 1
x[10,11] 0
x[10,12] 0
x[10,13] 0
x[11,0] 0
x[11,1] 0
x[11,2] 0
x[11,3] 0
x[11,4] 0
x[11,5] 0
x[11,6] 1
x[11,7] 0
x[11,8] 0
x[11,9] 0
x[11,10] 0
x[11,11] 0
x[11,12] 0
x[11,13] 0
x[12,0] 0
x[12,1] 0
x[12,2] 0
x[12,3] 0
x[12,4] 0
x[12,5] 0
x[12,6] 1
x[12,7] 0
x[12,8] 0
x[12,9] 0
x[12,10] 0
x[12,11] 0
x[12,12] 0
x[12,13] 0
x[13,0] 0
x[13,1] 0
x[13,2] 0
x[13,3] 0
x[13,4] 1
x[13,5] 0
x[13,6] 0
x[13,7] 0
x[13,8] 0
x[13,9] 0
x[13,10] 0
x[13,11] 0
x[13,12] 0
x[13,13] 0
x[14,0] 0
x[14,1] 0
x[14,2] 0
x[14,3] 0
x[14,4] 0
x[14,5] 0
x[14,6] 0
x[14,7] 0
x[14,8] 0
x[14,9] 0
x[14,10] 0
x[14,11] 0
x[14,12] 1
x[14,13] 0
x[15,0] 0
x[15,1] 0
x[15,2] 0
x[15,3] 0
x[15,4] 0
x[15,5] 0
x[15,6] 0
x[15,7] 0
x[15,8] 0
x[15,9] 1
x[15,10] 0
x[15,11] 0
x[15,12] 0
x[15,13] 0
x[16,0] 0
x[16,1] 1
x[16,2] 0
x[16,3] 0
x[16,4] 0
x[16,5] 0
x[16,6] 0
x[16,7] 0
x[16,8] 0
x[16,9] 0
x[16,10] 0
x[16,11] 0
x[16,12] 0
x[16,13] 0
x[17,0] 0
x[17,1] 0
x[17,2] 0
x[17,3] 0
x[17,4] 0
x[17,5] 0
x[17,6] 0
x[17,7] 0
x[17,8] 0
x[17,9] 0
x[17,10] 0
x[17,11] 1
x[17,12] 0
x[17,13] 0
x[18,0] 0
x[18,1] 0
x[18,2] 0
x[18,3] 0
x[18,4] 0
x[18,5] 0
x[18,6] 0
x[18,7] 0
x[18,8] 0
x[18,9] 0
x[18,10] 1
x[18,11] 0
x[18,12] 0
x[18,13] 0
x[19,0] 0
x[19,1] 0
x[19,2] 1
x[19,3] 0
x[19,4] 0
x[19,5] 0
x[19,6] 0
x[19,7] 0
x[19,8] 0
x[19,9] 0
x[19,10] 0
x[19,11] 0
x[19,12] 0
x[19,13] 0
x[20,0] 0
x[20,1] 0
x[20,2] 0
x[20,3] 0
x[20,4] 0
x[20,5] 0
x[20,6] 0
x[20,7] 0
x[20,8] 0
x[20,9] 0
x[20,10] 0
x[20,11] 0
x[20,12] 0
x[20,13] 1
x[21,0] 0
x[21,1] 0
x[21,2] 0
x[21,3] 0
x[21,4] 0
x[21,5] 0
x[21,6] 0
x[21,7] 0
x[21,8] 1
x[21,9] 0
x[21,10] 0
x[21,11] 0
x[21,12] 0
x[21,13] 0
x[22,0] 0
x[22,1] 0
x[22,2] 0
x[22,3] 0
x[22,4] 0
x[22,5] 0
x[22,6] 0
x[22,7] 0
x[22,8] 0
x[22,9] 0
x[22,10] 0
x[22,11] 1
x[22,12] 0
x[22,13] 0
x[23,0] 0
x[23,1] 0
x[23,2] 0
x[23,3] 1
x[23,4] 0
x[23,5] 0
x[23,6] 0
x[23,7] 0
x[23,8] 0
x[23,9] 0
x[23,10] 0
x[23,11] 0
x[23,12] 0
x[23,13] 0
x[24,0] 0
x[24,1] 0
x[24,2] 0
x[24,3] 0
x[24,4] 0
x[24,5] 0
x[24,6] 0
x[24,7] 1
x[24,8] 0
x[24,9] 0
x[24,10] 0
x[24,11] 0
x[24,12] 0
x[24,13] 0
x[25,0] 0
x[25,1] 0
x[25,2] 0
x[25,3] 0
x[25,4] 1
x[25,5] 0
x[25,6] 0
x[25,7] 0
x[25,8] 0
x[25,9] 0
x[25,10] 0
x[25,11] 0
x[25,12] 0
x[25,13] 0
x[26,0] 0
x[26,1] 0
x[26,2] 0
x[26,3] 0
x[26,4] 0
x[26,5] 0
x[26,6] 0
x[26,7] 0
x[26,8] 1
x[26,9] 0
x[26,10] 0
x[26,11] 0
x[26,12] 0
x[26,13] 0
x[27,0] 0
x[27,1] 0
x[27,2] 0
x[27,3] 0
x[27,4] 0
x[27,5] 0
x[27,6] 0
x[27,7] 0
x[27,8] 1
x[27,9] 0
x[27,10] 0
x[27,11] 0
x[27,12] 0
x[27,13] 0
x[28,0] 0
x[28,1] 0
x[28,2] 0
x[28,3] 0
x[28,4] 0
x[28,5] 0
x[28,6] 0
x[28,7] 0
x[28,8] 0
x[28,9] 1
x[28,10] 0
x[28,11] 0
x[28,12] 0
x[28,13] 0
x[29,0] 0
x[29,1] 0
x[29,2] 0
x[29,3] 0
x[29,4] 0
x[29,5] 0
x[29,6] 0
x[29,7] 0
x[29,8] 0
x[29,9] 0
x[29,10] 0
x[29,11] 0
x[29,12] 1
x[29,13] 0
x[30,0] 0
x[30,1] 0
x[30,2] 0
x[30,3] 0
x[30,4] 0
x[30,5] 0
x[30,6] 0
x[30,7] 0
x[30,8] 0
x[30,9] 0
x[30,10] 0
x[30,11] 1
x[30,12] 0
x[30,13] 0
x[31,0] 0
x[31,1] 0
x[31,2] 0
x[31,3] 0
x[31,4] 0
x[31,5] 1
x[31,6] 0
x[31,7] 0
x[31,8] 0
x[31,9] 0
x[31,10] 0
x[31,11] 0
x[31,12] 0
x[31,13] 0
x[32,0] 0
x[32,1] 1
x[32,2] 0
x[32,3] 0
x[32,4] 0
x[32,5] 0
x[32,6] 0
x[32,7] 0
x[32,8] 0
x[32,9] 0
x[32,10] 0
x[32,11] 0
x[32,12] 0
x[32,13] 0
x[33,0] 1
x[33,1] 0
x[33,2] 0
x[33,3] 0
x[33,4] 0
x[33,5] 0
x[33,6] 0
x[33,7] 0
x[33,8] 0
x[33,9] 0
x[33,10] 0
x[33,11] 0
x[33,12] 0
x[33,13] 0
x[34,0] 0
x[34,1] 0
x[34,2] 0
x[34,3] 0
x[34,4] 0
x[34,5] 0
x[34,6] 0
x[34,7] 0
x[34,8] 0
x[34,9] 0
x[34,10] 0
x[34,11] 0
x[34,12] 1
x[34,13] 0
x[35,0] 1
x[35,1] 0
x[35,2] 0
x[35,3] 0
x[35,4] 0
x[35,5] 0
x[35,6] 0
x[35,7] 0
x[35,8] 0
x[35,9] 0
x[35,10] 0
x[35,11] 0
x[35,12] 0
x[35,13] 0
x[36,0] 0
x[36,1] 0
x[36,2] 0
x[36,3] 0
x[36,4] 0
x[36,5] 0
x[36,6] 0
x[36,7] 0
x[36,8] 0
x[36,9] 0
x[36,10] 1
x[36,11] 0
x[36,12] 0
x[36,13] 0
x[37,0] 0
x[37,1] 0
x[37,2] 0
x[37,3] 0
x[37,4] 0
x[37,5] 1
x[37,6] 0
x[37,7] 0
x[37,8] 0
x[37,9] 0
x[37,10] 0
x[37,11] 0
x[37,12] 0
x[37,13] 0
x[38,0] 0
x[38,1] 0
x[38,2] 0
x[38,3] 1
x[38,4] 0
x[38,5] 0
x[38,6] 0
x[38,7] 0
x[38,8] 0
x[38,9] 0
x[38,10] 0
x[38,11] 0
x[38,12] 0
x[38,13] 0
x[39,0] 0
x[39,1] 0
x[39,2] 0
x[39,3] 0
x[39,4] 0
x[39,5] 0
x[39,6] 0
x[39,7] 1
x[39,8] 0
x[39,9] 0
x[39,10] 0
x[39,11] 0
x[39,12] 0
x[39,13] 0
y[0,0,0] 0
y[0,0,1] 0
y[0,0,2] 0
y[0,0,3] 0
y[0,1,0] 0
y[0,1,1] 0
y[0,1,2] 0
y[0,1,3] 0
y[0,2,0] 0
y[0,2,1] 0
y[0,2,2] 0
y[0,2,3] 0
y[0,3,0] 0
y[0,3,1] 0
y[0,3,2] 0
y[0,3,3] 1
y[1,0,0] 0
y[1,0,1] 0
y[1,0,2] 0
y[1,0,3] 0
y[1,1,0] 0
y[1,1,1] 0
y[1,1,2] 0
y[1,1,3] 0
y[1,2,0] 0
y[1,2,1] 0
y[1,2,2] 0
y[1,2,3] 0
y[1,3,0] 0
y[1,3,1] 0
y[1,3,2] 1
y[1,3,3] 0
y[2,0,0] 0
y[2,0,1] 0
y[2,0,2] 0
y[2,0,3] 0
y[2,1,0] 0
y[2,1,1] 0
y[2,1,2] 0
y[2,1,3] 0
y[2,2,0] 0
y[2,2,1] 0
y[2,2,2] 0
y[2,2,3] 0
y[2,3,0] 0
y[2,3,1] 1
y[2,3,2] 0
y[2,3,3] 0
y[3,0,0] 0
y[3,0,1] 0
y[3,0,2] 0
y[3,0,3] 0
y[3,1,0] 0
y[3,1,1] 0
y[3,1,2] 0
y[3,1,3] 0
y[3,2,0] 0
y[3,2,1] 0
y[3,2,2] 0
y[3,2,3] 0
y[3,3,0] 1
y[3,3,1] 0
y[3,3,2] 0
y[3,3,3] 0
y[4,0,0] 0
y[4,0,1] 0
y[4,0,2] 0
y[4,0,3] 0
y[4,1,0] 0
y[4,1,1] 0
y[4,1,2] 0
y[4,1,3] 0
y[4,2,0] 0
y[4,2,1] 0
y[4,2,2] 0
y[4,2,3] 1
y[4,3,0] 0
y[4,3,1] 0
y[4,3,2] 0
y[4,3,3] 0
y[5,0,0] 0
y[5,0,1] 0
y[5,0,2] 0
y[5,0,3] 0
y[5,1,0] 0
y[5,1,1] 0
y[5,1,2] 0
y[5,1,3] 0
y[5,2,0] 0
y[5,2,1] 0
y[5,2,2] 1
y[5,2,3] 0
y[5,3,0] 0
y[5,3,1] 0
y[5,3,2] 0
y[5,3,3] 0
y[6,0,0] 0
y[6,0,1] 0
y[6,0,2] 0
y[6,0,3] 0
y[6,1,0] 0
y[6,1,1] 0
y[6,1,2] 0
y[6,1,3] 0
y[6,2,0] 0
y[6,2,1] 1
y[6,2,2] 0
y[6,2,3] 0
y[6,3,0] 0
y[6,3,1] 0
y[6,3,2] 0
y[6,3,3] 0
y[7,0,0] 0
y[7,0,1] 0
y[7,0,2] 0
y[7,0,3] 0
y[7,1,0] 0
y[7,1,1] 0
y[7,1,2] 0
y[7,1,3] 0
y[7,2,0] 1
y[7,2,1] 0
y[7,2,2] 0
y[7,2,3] 0
y[7,3,0] 0
y[7,3,1] 0
y[7,3,2] 0
y[7,3,3] 0
y[8,0,0] 0
y[8,0,1] 0
y[8,0,2] 0
y[8,0,3] 0
y[8,1,0] 0
y[8,1,1] 0
y[8,1,2] 0
y[8,1,3] 1
y[8,2,0] 0
y[8,2,1] 0
y[8,2,2] 0
y[8,2,3] 0
y[8,3,0] 0
y[8,3,1] 0
y[8,3,2] 0
y[8,3,3] 0
y[9,0,0] 0
y[9,0,1] 0
y[9,0,2] 0
y[9,0,3] 0
y[9,1,0] 0
y[9,1,1] 0
y[9,1,2] 1
y[9,1,3] 0
y[9,2,0] 0
y[9,2,1] 0
y[9,2,2] 0
y[9,2,3] 0
y[9,3,0] 0
y[9,3,1] 0
y[9,3,2] 0
y[9,3,3] 0
y[10,0,0] 0
y[10,0,1] 0
y[10,0,2] 0
y[10,0,3] 0
y[10,1,0] 0
y[10,1,1] 1
y[10,1,2] 0
y[10,1,3] 0
y[10,2,0] 0
y[10,2,1] 0
y[10,2,2] 0
y[10,2,3] 0
y[10,3,0] 0
y[10,3,1] 0
y[10,3,2] 0
y[10,3,3] 0
y[11,0,0] 0
y[11,0,1] 0
y[11,0,2] 0
y[11,0,3] 0
y[11,1,0] 1
y[11,1,1] 0
y[11,1,2] 0
y[11,1,3] 0
y[11,2,0] 0
y[11,2,1] 0
y[11,2,2] 0
y[11,2,3] 0
y[11,3,0] 0
y[11,3,1] 0
y[11,3,2] 0
y[11,3,3] 0
y[12,0,0] 0
y[12,0,1] 0
y[12,0,2] 0
y[12,0,3] 1
y[12,1,0] 0
y[12,1,1] 0
y[12,1,2] 0
y[12,1,3] 0
y[12,2,0] 0
y[12,2,1] 0
y[12,2,2] 0
y[12,2,3] 0
y[12,3,0] 0
y[12,3,1] 0
y[12,3,2] 0
y[12,3,3] 0
y[13,0,0] 0
y[13,0,1] 0
y[13,0,2] 1
y[13,0,3] 0
y[13,1,0] 0
y[13,1,1] 0
y[13,1,2] 0
y[13,1,3] 0
y[13,2,0] 0
y[13,2,1] 0
y[13,2,2] 0
y[13,2,3] 0
y[13,3,0] 0
y[13,3,1] 0
y[13,3,2] 0
y[13,3,3] 0
w[0,0] 0
w[0,1] 0
w[0,2] 1
w[0,3] 1
w[0,4] 0
w[0,5] 1
w[0,6] 0
w[0,7] 0
w[0,8] 0
w[0,9] 0
w[0,10] 0
w[0,11] 0
w[0,12] 0
w[0,13] 0
w[1,0] 0
w[1,1] 0
w[1,2] 0
w[1,3] 0
w[1,4] 0
w[1,5] 0
w[1,6] 0
w[1,7] 0
w[1,8] 0
w[1,9] 0
w[1,10] 0
w[1,11] 0
w[1,12] 0
w[1,13] 0
w[2,0] 0
w[2,1] 0
w[2,2] 0
w[2,3] 0
w[2,4] 0
w[2,5] 0
w[2,6] 0
w[2,7] 0
w[2,8] 0
w[2,9] 0
w[2,10] 0
w[2,11] 0
w[2,12] 1
w[2,13] 0
w[3,0] 0
w[3,1] 0
w[3,2] 0
w[3,3] 0
w[3,4] 0
w[3,5] 0
w[3,6] 0
w[3,7] 0
w[3,8] 0
w[3,9] 0
w[3,10] 0
w[3,11] 0
w[3,12] 0
w[3,13] 0
w[4,0] 0
w[4,1] 0
w[4,2] 0
w[4,3] 0
w[4,4] 0
w[4,5] 0
w[4,6] 0
w[4,7] 0
w[4,8] 0
w[4,9] 1
w[4,10] 0
w[4,11] 0
w[4,12] 0
w[4,13] 0
w[5,0] 0
w[5,1] 0
w[5,2] 0
w[5,3] 0
w[5,4] 0
w[5,5] 0
w[5,6] 0
w[5,7] 0
w[5,8] 1
w[5,9] 0
w[5,10] 0
w[5,11] 0
w[5,12] 0
w[5,13] 0
w[6,0] 0
w[6,1] 0
w[6,2] 0
w[6,3] 0
w[6,4] 0
w[6,5] 0
w[6,6] 1
w[6,7] 0
w[6,8] 1
w[6,9] 0
w[6,10] 0
w[6,11] 0
w[6,12] 0
w[6,13] 0
w[7,0] 0
w[7,1] 0
w[7,2] 1
w[7,3] 1
w[7,4] 0
w[7,5] 0
w[7,6] 0
w[7,7] 0
w[7,8] 0
w[7,9] 0
w[7,10] 0
w[7,11] 0
w[7,12] 0
w[7,13] 0
w[8,0] 0
w[8,1] 0
w[8,2] 0
w[8,3] 0
w[8,4] 0
w[8,5] 0
w[8,6] 0
w[8,7] 0
w[8,8] 0
w[8,9] 0
w[8,10] 0
w[8,11] 0
w[8,12] 1
w[8,13] 0
w[9,0] 0
w[9,1] 0
w[9,2] 0
w[9,3] 0
w[9,4] 0
w[9,5] 0
w[9,6] 0
w[9,7] 0
w[9,8] 0
w[9,9] 0
w[9,10] 0
w[9,11] 1
w[9,12] 0
w[9,13] 0
w[10,0] 0
w[10,1] 0
w[10,2] 0
w[10,3] 0
w[10,4] 0
w[10,5] 0
w[10,6] 0
w[10,7] 0
w[10,8] 0
w[10,9] 0
w[10,10] 0
w[10,11] 0
w[10,12] 0
w[10,13] 0
w[11,0] 0
w[11,1] 1
w[11,2] 0
w[11,3] 0
w[11,4] 0
w[11,5] 0
w[11,6] 0
w[11,7] 0
w[11,8] 1
w[11,9] 0
w[11,10] 0
w[11,11] 0
w[11,12] 0
w[11,13] 0
w[12,0] 0
w[12,1] 0
w[12,2] 0
w[12,3] 0
w[12,4] 0
w[12,5] 1
w[12,6] 0
w[12,7] 0
w[12,8] 0
w[12,9] 0
w[12,10] 0
w[12,11] 0
w[12,12] 0
w[12,13] 0
w[13,0] 0
w[13,1] 0
w[13,2] 0
w[13,3] 0
w[13,4] 0
w[13,5] 0
w[13,6] 0
w[13,7] 0
w[13,8] 0
w[13,9] 0
w[13,10] 0
w[13,11] 0
w[13,12] 0
w[13,13] 0
w[14,0] 0
w[14,1] 0
w[14,2] 0
w[14,3] 0
w[14,4] 0
w[14,5] 0
w[14,6] 0
w[14,7] 0
w[14,8] 0
w[14,9] 0
w[14,10] 0
w[14,11] 0
w[14,12] 0
w[14,13] 0
w[15,0] 0
w[15,1] 0
w[15,2] 0
w[15,3] 0
w[15,4] 0
w[15,5] 0
w[15,6] 0
w[15,7] 0
w[15,8] 0
w[15,9] 0
w[15,10] 0
w[15,11] 0
w[15,12] 0
w[15,13] 0
w[16,0] 0
w[16,1] 0
w[16,2] 0
w[16,3] 0
w[16,4] 0
w[16,5] 0
w[16,6] 0
w[16,7] 1
w[16,8] 0
w[16,9] 0
w[16,10] 1
w[16,11] 0
w[16,12] 0
w[16,13] 0
w[17,0] 0
w[17,1] 0
w[17,2] 0
w[17,3] 0
w[17,4] 0
w[17,5] 0
w[17,6] 0
w[17,7] 0
w[17,8] 0
w[17,9] 0
w[17,10] 0
w[17,11] 0
w[17,12] 0
w[17,13] 1
w[18,0] 0
w[18,1] 0
w[18,2] 0
w[18,3] 1
w[18,4] 0
w[18,5] 0
w[18,6] 0
w[18,7] 0
w[18,8] 1
w[18,9] 1
w[18,10] 0
w[18,11] 0
w[18,12] 0
w[18,13] 0
w[19,0] 0
w[19,1] 0
w[19,2] 0
w[19,3] 0
w[19,4] 1
w[19,5] 0
w[19,6] 0
w[19,7] 0
w[19,8] 0
w[19,9] 0
w[19,10] 0
w[19,11] 0
w[19,12] 0
w[19,13] 0
w[20,0] 0
w[20,1] 0
w[20,2] 0
w[20,3] 0
w[20,4] 0
w[20,5] 0
w[20,6] 0
w[20,7] 0
w[20,8] 0
w[20,9] 0
w[20,10] 0
w[20,11] 1
w[20,12] 0
w[20,13] 0
w[21,0] 1
w[21,1] 0
w[21,2] 0
w[21,3] 0
w[21,4] 0
w[21,5] 0
w[21,6] 0
w[21,7] 0
w[21,8] 0
w[21,9] 0
w[21,10] 1
w[21,11] 0
w[21,12] 0
w[21,13] 0
w[22,0] 0
w[22,1] 1
w[22,2] 0
w[22,3] 0
w[22,4] 0
w[22,5] 0
w[22,6] 0
w[22,7] 0
w[22,8] 0
w[22,9] 0
w[22,10] 0
w[22,11] 0
w[22,12] 1
w[22,13] 0
w[23,0] 0
w[23,1] 0
w[23,2] 0
w[23,3] 0
w[23,4] 1
w[23,5] 0
w[23,6] 0
w[23,7] 1
w[23,8] 0
w[23,9] 0
w[23,10] 0
w[23,11] 0
w[23,12] 0
w[23,13] 0
w[24,0] 0
w[24,1] 0
w[24,2] 0
w[24,3] 0
w[24,4] 0
w[24,5] 0
w[24,6] 0
w[24,7] 1
w[24,8] 0
w[24,9] 0
w[24,10] 0
w[24,11] 0
w[24,12] 0
w[24,13] 0
w[25,0] 0
w[25,1] 0
w[25,2] 0
w[25,3] 0
w[25,4] 0
w[25,5] 1
w[25,6] 0
w[25,7] 0
w[25,8] 0
w[25,9] 0
w[25,10] 1
w[25,11] 1
w[25,12] 1
w[25,13] 0
w[26,0] 0
w[26,1] 0
w[26,2] 0
w[26,3] 0
w[26,4] 0
w[26,5] 0
w[26,6] 0
w[26,7] 0
w[26,8] 0
w[26,9] 0
w[26,10] 0
w[26,11] 0
w[26,12] 0
w[26,13] 0
w[27,0] 0
w[27,1] 0
w[27,2] 0
w[27,3] 1
w[27,4] 1
w[27,5] 1
w[27,6] 0
w[27,7] 0
w[27,8] 0
w[27,9] 0
w[27,10] 0
w[27,11] 0
w[27,12] 0
w[27,13] 0
w[28,0] 0
w[28,1] 1
w[28,2] 0
w[28,3] 0
w[28,4] 1
w[28,5] 0
w[28,6] 1
w[28,7] 0
w[28,8] 0
w[28,9] 0
w[28,10] 0
w[28,11] 1
w[28,12] 0
w[28,13] 0
w[29,0] 0
w[29,1] 0
w[29,2] 0
w[29,3] 0
w[29,4] 0
w[29,5] 0
w[29,6] 0
w[29,7] 0
w[29,8] 0
w[29,9] 0
w[29,10] 0
w[29,11] 0
w[29,12] 0
w[29,13] 0
w[30,0] 1
w[30,1] 0
w[30,2] 0
w[30,3] 0
w[30,4] 0
w[30,5] 0
w[30,6] 0
w[30,7] 0
w[30,8] 0
w[30,9] 0
w[30,10] 0
w[30,11] 0
w[30,12] 0
w[30,13] 0
w[31,0] 1
w[31,1] 1
w[31,2] 0
w[31,3] 0
w[31,4] 0
w[31,5] 0
w[31,6] 0
w[31,7] 1
w[31,8] 0
w[31,9] 0
w[31,10] 0
w[31,11] 0
w[31,12] 0
w[31,13] 0
w[32,0] 0
w[32,1] 1
w[32,2] 0
w[32,3] 0
w[32,4] 0
w[32,5] 0
w[32,6] 0
w[32,7] 0
w[32,8] 0
w[32,9] 0
w[32,10] 0
w[32,11] 0
w[32,12] 0
w[32,13] 0
w[33,0] 0
w[33,1] 0
w[33,2] 0
w[33,3] 0
w[33,4] 0
w[33,5] 0
w[33,6] 0
w[33,7] 0
w[33,8] 0
w[33,9] 0
w[33,10] 1
w[33,11] 0
w[33,12] 0
w[33,13] 0
w[34,0] 1
w[34,1] 0
w[34,2] 1
w[34,3] 0
w[34,4] 0
w[34,5] 1
w[34,6] 0
w[34,7] 0
w[34,8] 0
w[34,9] 0
w[34,10] 0
w[34,11] 0
w[34,12] 0
w[34,13] 0
w[35,0] 1
w[35,1] 0
w[35,2] 0
w[35,3] 0
w[35,4] 0
w[35,5] 0
w[35,6] 0
w[35,7] 0
w[35,8] 0
w[35,9] 0
w[35,10] 1
w[35,11] 1
w[35,12] 0
w[35,13] 1
w[36,0] 0
w[36,1] 0
w[36,2] 0
w[36,3] 0
w[36,4] 1
w[36,5] 0
w[36,6] 0
w[36,7] 0
w[36,8] 0
w[36,9] 0
w[36,10] 0
w[36,11] 0
w[36,12] 0
w[36,13] 0
w[37,0] 0
w[37,1] 0
w[37,2] 0
w[37,3] 0
w[37,4] 0
w[37,5] 0
w[37,6] 1
w[37,7] 1
w[37,8] 1
w[37,9] 1
w[37,10] 0
w[37,11] 0
w[37,12] 0
w[37,13] 0
bb[0] 0
bb[1] 0
bb[2] 0
bb[3] 0
bb[4] 0
bb[5] 0
bb[6] 0
bb[7] 0
bb[8] 0
bb[9] 0
bb[10] 0
bb[11] 0
bb[12] 0
bb[13] 0
z 0
